Minimize

COST_0


Subject To

a0: COST_0 - 0 - 55 v_0_0_2_0_0 - 60 v_0_0_2_0_1 - 50 v_0_0_2_0_2 - 58 v_0_0_2_0_3 - 55 v_0_0_2_1_0 - 60 v_0_0_2_1_1 - 50 v_0_0_2_1_2 - 58 v_0_0_2_1_3 - 55 v_0_0_2_2_0 - 60 v_0_0_2_2_1 - 50 v_0_0_2_2_2 - 58 v_0_0_2_2_3 - 55 v_0_0_2_3_0 - 60 v_0_0_2_3_1 - 50 v_0_0_2_3_2 - 58 v_0_0_2_3_3 - 55 v_0_1_2_0_0 - 60 v_0_1_2_0_1 - 50 v_0_1_2_0_2 - 58 v_0_1_2_0_3 - 55 v_0_1_2_1_0 - 60 v_0_1_2_1_1 - 50 v_0_1_2_1_2 - 58 v_0_1_2_1_3 - 55 v_0_1_2_2_0 - 60 v_0_1_2_2_1 - 50 v_0_1_2_2_2 - 58 v_0_1_2_2_3 - 55 v_0_1_2_3_0 - 60 v_0_1_2_3_1 - 50 v_0_1_2_3_2 - 58 v_0_1_2_3_3 - 55 v_0_2_2_0_0 - 60 v_0_2_2_0_1 - 50 v_0_2_2_0_2 - 58 v_0_2_2_0_3 - 55 v_0_2_2_1_0 - 60 v_0_2_2_1_1 - 50 v_0_2_2_1_2 - 58 v_0_2_2_1_3 - 55 v_0_2_2_2_0 - 60 v_0_2_2_2_1 - 50 v_0_2_2_2_2 - 58 v_0_2_2_2_3 - 55 v_0_2_2_3_0 - 60 v_0_2_2_3_1 - 50 v_0_2_2_3_2 - 58 v_0_2_2_3_3 - 55 v_0_3_2_0_0 - 60 v_0_3_2_0_1 - 50 v_0_3_2_0_2 - 58 v_0_3_2_0_3 - 55 v_0_3_2_1_0 - 60 v_0_3_2_1_1 - 50 v_0_3_2_1_2 - 58 v_0_3_2_1_3 - 55 v_0_3_2_2_0 - 60 v_0_3_2_2_1 - 50 v_0_3_2_2_2 - 58 v_0_3_2_2_3 - 55 v_0_3_2_3_0 - 60 v_0_3_2_3_1 - 50 v_0_3_2_3_2 - 58 v_0_3_2_3_3 - 80 v_1_0_2_0_2 - 75 v_1_0_2_0_4 - 70 v_1_0_2_0_5 - 80 v_1_0_2_1_2 - 75 v_1_0_2_1_4 - 70 v_1_0_2_1_5 - 80 v_1_0_2_2_2 - 75 v_1_0_2_2_4 - 70 v_1_0_2_2_5 - 80 v_1_0_2_3_2 - 75 v_1_0_2_3_4 - 70 v_1_0_2_3_5 - 80 v_1_1_2_0_2 - 75 v_1_1_2_0_4 - 70 v_1_1_2_0_5 - 80 v_1_1_2_1_2 - 75 v_1_1_2_1_4 - 70 v_1_1_2_1_5 - 80 v_1_1_2_2_2 - 75 v_1_1_2_2_4 - 70 v_1_1_2_2_5 - 80 v_1_1_2_3_2 - 75 v_1_1_2_3_4 - 70 v_1_1_2_3_5 - 80 v_1_2_2_0_2 - 75 v_1_2_2_0_4 - 70 v_1_2_2_0_5 - 80 v_1_2_2_1_2 - 75 v_1_2_2_1_4 - 70 v_1_2_2_1_5 - 80 v_1_2_2_2_2 - 75 v_1_2_2_2_4 - 70 v_1_2_2_2_5 - 80 v_1_2_2_3_2 - 75 v_1_2_2_3_4 - 70 v_1_2_2_3_5 - 80 v_1_3_2_0_2 - 75 v_1_3_2_0_4 - 70 v_1_3_2_0_5 - 80 v_1_3_2_1_2 - 75 v_1_3_2_1_4 - 70 v_1_3_2_1_5 - 80 v_1_3_2_2_2 - 75 v_1_3_2_2_4 - 70 v_1_3_2_2_5 - 80 v_1_3_2_3_2 - 75 v_1_3_2_3_4 - 70 v_1_3_2_3_5 = 0
b0: CO2_0 - 0 - 770 v_0_0_2_0_0 - 750 v_0_0_2_0_1 - 630 v_0_0_2_0_2 - 620 v_0_0_2_0_3 - 770 v_0_0_2_1_0 - 750 v_0_0_2_1_1 - 630 v_0_0_2_1_2 - 620 v_0_0_2_1_3 - 770 v_0_0_2_2_0 - 750 v_0_0_2_2_1 - 630 v_0_0_2_2_2 - 620 v_0_0_2_2_3 - 770 v_0_0_2_3_0 - 750 v_0_0_2_3_1 - 630 v_0_0_2_3_2 - 620 v_0_0_2_3_3 - 770 v_0_1_2_0_0 - 750 v_0_1_2_0_1 - 630 v_0_1_2_0_2 - 620 v_0_1_2_0_3 - 770 v_0_1_2_1_0 - 750 v_0_1_2_1_1 - 630 v_0_1_2_1_2 - 620 v_0_1_2_1_3 - 770 v_0_1_2_2_0 - 750 v_0_1_2_2_1 - 630 v_0_1_2_2_2 - 620 v_0_1_2_2_3 - 770 v_0_1_2_3_0 - 750 v_0_1_2_3_1 - 630 v_0_1_2_3_2 - 620 v_0_1_2_3_3 - 770 v_0_2_2_0_0 - 750 v_0_2_2_0_1 - 630 v_0_2_2_0_2 - 620 v_0_2_2_0_3 - 770 v_0_2_2_1_0 - 750 v_0_2_2_1_1 - 630 v_0_2_2_1_2 - 620 v_0_2_2_1_3 - 770 v_0_2_2_2_0 - 750 v_0_2_2_2_1 - 630 v_0_2_2_2_2 - 620 v_0_2_2_2_3 - 770 v_0_2_2_3_0 - 750 v_0_2_2_3_1 - 630 v_0_2_2_3_2 - 620 v_0_2_2_3_3 - 770 v_0_3_2_0_0 - 750 v_0_3_2_0_1 - 630 v_0_3_2_0_2 - 620 v_0_3_2_0_3 - 770 v_0_3_2_1_0 - 750 v_0_3_2_1_1 - 630 v_0_3_2_1_2 - 620 v_0_3_2_1_3 - 770 v_0_3_2_2_0 - 750 v_0_3_2_2_1 - 630 v_0_3_2_2_2 - 620 v_0_3_2_2_3 - 770 v_0_3_2_3_0 - 750 v_0_3_2_3_1 - 630 v_0_3_2_3_2 - 620 v_0_3_2_3_3 - 625 v_1_0_2_0_2 - 450 v_1_0_2_0_4 - 460 v_1_0_2_0_5 - 625 v_1_0_2_1_2 - 450 v_1_0_2_1_4 - 460 v_1_0_2_1_5 - 625 v_1_0_2_2_2 - 450 v_1_0_2_2_4 - 460 v_1_0_2_2_5 - 625 v_1_0_2_3_2 - 450 v_1_0_2_3_4 - 460 v_1_0_2_3_5 - 625 v_1_1_2_0_2 - 450 v_1_1_2_0_4 - 460 v_1_1_2_0_5 - 625 v_1_1_2_1_2 - 450 v_1_1_2_1_4 - 460 v_1_1_2_1_5 - 625 v_1_1_2_2_2 - 450 v_1_1_2_2_4 - 460 v_1_1_2_2_5 - 625 v_1_1_2_3_2 - 450 v_1_1_2_3_4 - 460 v_1_1_2_3_5 - 625 v_1_2_2_0_2 - 450 v_1_2_2_0_4 - 460 v_1_2_2_0_5 - 625 v_1_2_2_1_2 - 450 v_1_2_2_1_4 - 460 v_1_2_2_1_5 - 625 v_1_2_2_2_2 - 450 v_1_2_2_2_4 - 460 v_1_2_2_2_5 - 625 v_1_2_2_3_2 - 450 v_1_2_2_3_4 - 460 v_1_2_2_3_5 - 625 v_1_3_2_0_2 - 450 v_1_3_2_0_4 - 460 v_1_3_2_0_5 - 625 v_1_3_2_1_2 - 450 v_1_3_2_1_4 - 460 v_1_3_2_1_5 - 625 v_1_3_2_2_2 - 450 v_1_3_2_2_4 - 460 v_1_3_2_2_5 - 625 v_1_3_2_3_2 - 450 v_1_3_2_3_4 - 460 v_1_3_2_3_5 = 0
c0: TIME_0 - 0 - 202 v_0_0_2_0_0 - 202 v_0_0_2_0_1 - 166 v_0_0_2_0_2 - 166 v_0_0_2_0_3 - 202 v_0_0_2_1_0 - 202 v_0_0_2_1_1 - 166 v_0_0_2_1_2 - 166 v_0_0_2_1_3 - 202 v_0_0_2_2_0 - 202 v_0_0_2_2_1 - 166 v_0_0_2_2_2 - 166 v_0_0_2_2_3 - 202 v_0_0_2_3_0 - 202 v_0_0_2_3_1 - 166 v_0_0_2_3_2 - 166 v_0_0_2_3_3 - 202 v_0_1_2_0_0 - 202 v_0_1_2_0_1 - 166 v_0_1_2_0_2 - 166 v_0_1_2_0_3 - 202 v_0_1_2_1_0 - 202 v_0_1_2_1_1 - 166 v_0_1_2_1_2 - 166 v_0_1_2_1_3 - 202 v_0_1_2_2_0 - 202 v_0_1_2_2_1 - 166 v_0_1_2_2_2 - 166 v_0_1_2_2_3 - 202 v_0_1_2_3_0 - 202 v_0_1_2_3_1 - 166 v_0_1_2_3_2 - 166 v_0_1_2_3_3 - 202 v_0_2_2_0_0 - 202 v_0_2_2_0_1 - 166 v_0_2_2_0_2 - 166 v_0_2_2_0_3 - 202 v_0_2_2_1_0 - 202 v_0_2_2_1_1 - 166 v_0_2_2_1_2 - 166 v_0_2_2_1_3 - 202 v_0_2_2_2_0 - 202 v_0_2_2_2_1 - 166 v_0_2_2_2_2 - 166 v_0_2_2_2_3 - 202 v_0_2_2_3_0 - 202 v_0_2_2_3_1 - 166 v_0_2_2_3_2 - 166 v_0_2_2_3_3 - 202 v_0_3_2_0_0 - 202 v_0_3_2_0_1 - 166 v_0_3_2_0_2 - 166 v_0_3_2_0_3 - 202 v_0_3_2_1_0 - 202 v_0_3_2_1_1 - 166 v_0_3_2_1_2 - 166 v_0_3_2_1_3 - 202 v_0_3_2_2_0 - 202 v_0_3_2_2_1 - 166 v_0_3_2_2_2 - 166 v_0_3_2_2_3 - 202 v_0_3_2_3_0 - 202 v_0_3_2_3_1 - 166 v_0_3_2_3_2 - 166 v_0_3_2_3_3 - 166 v_1_0_2_0_2 - 142 v_1_0_2_0_4 - 142 v_1_0_2_0_5 - 166 v_1_0_2_1_2 - 142 v_1_0_2_1_4 - 142 v_1_0_2_1_5 - 166 v_1_0_2_2_2 - 142 v_1_0_2_2_4 - 142 v_1_0_2_2_5 - 166 v_1_0_2_3_2 - 142 v_1_0_2_3_4 - 142 v_1_0_2_3_5 - 166 v_1_1_2_0_2 - 142 v_1_1_2_0_4 - 142 v_1_1_2_0_5 - 166 v_1_1_2_1_2 - 142 v_1_1_2_1_4 - 142 v_1_1_2_1_5 - 166 v_1_1_2_2_2 - 142 v_1_1_2_2_4 - 142 v_1_1_2_2_5 - 166 v_1_1_2_3_2 - 142 v_1_1_2_3_4 - 142 v_1_1_2_3_5 - 166 v_1_2_2_0_2 - 142 v_1_2_2_0_4 - 142 v_1_2_2_0_5 - 166 v_1_2_2_1_2 - 142 v_1_2_2_1_4 - 142 v_1_2_2_1_5 - 166 v_1_2_2_2_2 - 142 v_1_2_2_2_4 - 142 v_1_2_2_2_5 - 166 v_1_2_2_3_2 - 142 v_1_2_2_3_4 - 142 v_1_2_2_3_5 - 166 v_1_3_2_0_2 - 142 v_1_3_2_0_4 - 142 v_1_3_2_0_5 - 166 v_1_3_2_1_2 - 142 v_1_3_2_1_4 - 142 v_1_3_2_1_5 - 166 v_1_3_2_2_2 - 142 v_1_3_2_2_4 - 142 v_1_3_2_2_5 - 166 v_1_3_2_3_2 - 142 v_1_3_2_3_4 - 142 v_1_3_2_3_5 = 0
d0: x_0_0 + x_0_1 = 1
d1: x_1_1 + x_1_2 = 1
d2: x_2_3 = 1
e0: x_0_2 + x_0_3 = 0
e1: x_1_0 + x_1_3 = 0
e2: x_2_0 + x_2_1 + x_2_2 = 0
f0: w_0_0 + w_0_1 + w_0_2 + w_0_3 = 1
f1: w_1_2 + w_1_4 + w_1_5 = 1
g0: w_0_4 + w_0_5 = 0
g1: w_1_0 + w_1_1 + w_1_3 = 0
g2: w_2_0 + w_2_1 + w_2_2 + w_2_3 + w_2_4 + w_2_5 = 0




 


End
